/*********************************************
 * OPL 12.6.0.0 Data
 * Author: Adrian Rodriguez Bazaga, Pau Rodriguez Esmerats
 * Creation Date: 09/12/2017 at 00:43:32
 *********************************************/

maxConsec=9;
maxPresence=13;
maxHours=8;
minHours=1;
hours=20;
demand= [19 25 24 20 22 20 21 24 21 14 8 7 1 3 0 1 0 1 0 1  ];
nNurses=29;
